RT is False
Default write of storage_offers_DA.csv just to have a file (but constraint should be inactive)
Reading model...
...model read.
creating competitive generators file...
...competitive generators recorded.
Loading data...
.. day-ahead data with real-time VRE data read.
Compiling instance...
...instance created.
Creating Offer Mitigation (model will solve as dispatch if TRUE)...
NOTE: storage offers will not be mitigated
...storage offer mitigation file created
Converting model to MPEC...
...converted
NOTE: initial MIP solve with only storage competitive to get feasible solution
Solving...

Welcome to IBM(R) ILOG(R) CPLEX(R) Interactive Optimizer 12.9.0.0
  with Simplex, Mixed Integer & Barrier Optimizers
5725-A06 5725-A29 5724-Y48 5724-Y49 5724-Y54 5724-Y55 5655-Y21
Copyright IBM Corp. 1988, 2019.  All Rights Reserved.

Type 'help' for a list of available commands.
Type 'help' followed by a command name for more
information on commands.

CPLEX> Logfile 'cplex.log' closed.
Logfile 'C:\Users\llavin\Desktop\test826\logs\tmpfp7f5gh2.cplex.log' open.
CPLEX> New value for parallel optimization mode: -1
CPLEX> New value for emphasis for MIP optimization: 1
CPLEX> New value for mixed integer optimality gap tolerance: 0.01
CPLEX> New value for integrality tolerance: 1e-12
CPLEX> New value for deterministic time limit in ticks: 75000
CPLEX> Problem 'C:\Users\llavin\Desktop\test826\logs\tmp65rsv6ie.pyomo.lp' read.
Read time = 0.23 sec. (13.92 ticks)
CPLEX> Problem name         : C:\Users\llavin\Desktop\test826\logs\tmp65rsv6ie.pyomo.lp
Objective sense      : Maximize
Variables            :   53809  [Nneg: 1,  Box: 22004,  Free: 4464,
                                 Binary: 27340]
Objective nonzeros   :    9029
Linear constraints   :  123253  [Less: 41346,  Greater: 59096,  Equal: 22811]
  Nonzeros           :  293217
  RHS nonzeros       :   67491

Variables            : Min LB: -5000.000        Max UB: 1000000.       
Objective nonzeros   : Min   : 0.3083333        Max   : 2500.000       
Linear constraints   :
  Nonzeros           : Min   : 0.3083333        Max   : 1000000.       
  RHS nonzeros       : Min   : 0.3083333        Max   : 1000000.       
CPLEX> CPXPARAM_Parallel                                -1
CPXPARAM_Emphasis_MIP                            1
CPXPARAM_DetTimeLimit                            75000
CPXPARAM_MIP_Tolerances_MIPGap                   0.01
CPXPARAM_MIP_Tolerances_Integrality              9.9999999999999998e-13
Tried aggregator 4 times.
MIP Presolve eliminated 88660 rows and 18963 columns.
MIP Presolve added 3378 rows and 0 columns.
MIP Presolve modified 24847 coefficients.
Aggregator did 12985 substitutions.
Reduced MIP has 24986 rows, 21305 columns, and 71873 nonzeros.
Reduced MIP has 8420 binaries, 0 generals, 0 SOSs, and 0 indicators.
Presolve time = 0.33 sec. (192.35 ticks)
Probing fixed 373 vars, tightened 3922 bounds.
Probing time = 0.06 sec. (19.04 ticks)
Tried aggregator 2 times.
MIP Presolve eliminated 845 rows and 747 columns.
MIP Presolve modified 3041 coefficients.
Aggregator did 34 substitutions.
Reduced MIP has 24107 rows, 20524 columns, and 69329 nonzeros.
Reduced MIP has 8047 binaries, 0 generals, 0 SOSs, and 0 indicators.
Presolve time = 0.11 sec. (89.61 ticks)
Probing fixed 0 vars, tightened 266 bounds.
Probing time = 0.14 sec. (22.94 ticks)
Clique table members: 44815.
MIP emphasis: integer feasibility.
MIP search method: dynamic search.
Parallel mode: opportunistic, using up to 32 threads.
Root relaxation solution time = 0.41 sec. (613.82 ticks)

        Nodes                                         Cuts/
   Node  Left     Objective  IInf  Best Integer    Best Bound    ItCnt     Gap

      0     0     1104.2892   102                   1104.2892     5212         
*     0+    0                         1064.3940     1104.2892             3.75%

Repeating presolve.
Tried aggregator 3 times.
MIP Presolve eliminated 12233 rows and 9406 columns.
MIP Presolve modified 17066 coefficients.
Aggregator did 152 substitutions.
Reduced MIP has 11722 rows, 10966 columns, and 36368 nonzeros.
Reduced MIP has 4027 binaries, 0 generals, 0 SOSs, and 0 indicators.
Presolve time = 0.11 sec. (62.37 ticks)
Probing fixed 298 vars, tightened 29137 bounds.
Probing time = 0.14 sec. (71.19 ticks)
Tried aggregator 5 times.
MIP Presolve eliminated 5412 rows and 5342 columns.
MIP Presolve modified 1919 coefficients.
Aggregator did 84 substitutions.
Reduced MIP has 6226 rows, 5540 columns, and 20959 nonzeros.
Reduced MIP has 1967 binaries, 0 generals, 0 SOSs, and 0 indicators.
Presolve time = 0.05 sec. (31.47 ticks)
Probing fixed 7 vars, tightened 3026 bounds.
Probing time = 0.05 sec. (17.91 ticks)
Tried aggregator 3 times.
MIP Presolve eliminated 34 rows and 31 columns.
MIP Presolve modified 1188 coefficients.
Aggregator did 7 substitutions.
Reduced MIP has 6185 rows, 5501 columns, and 20773 nonzeros.
Reduced MIP has 1960 binaries, 0 generals, 0 SOSs, and 0 indicators.
Presolve time = 0.03 sec. (20.17 ticks)
Represolve time = 0.44 sec. (223.18 ticks)
Probing fixed 37 vars, tightened 4441 bounds.
Probing time = 0.03 sec. (8.91 ticks)
Cover probing fixed 2 vars, tightened 309 bounds.
Clique table members: 2617.
MIP emphasis: integer feasibility.
MIP search method: dynamic search.
Parallel mode: opportunistic, using up to 32 threads.
Root relaxation solution time = 0.11 sec. (100.90 ticks)

        Nodes                                         Cuts/
   Node  Left     Objective  IInf  Best Integer    Best Bound    ItCnt     Gap

*     0+    0                         1064.3940     1101.9770             3.53%
      0     0     1101.9770    13     1064.3940     1101.9770     6906    3.53%
      0     0     1101.9770     2     1064.3940      Fract: 1     6911    3.53%

Root node processing (before b&c):
  Real time             =    3.67 sec. (2413.29 ticks)
Parallel b&c, 32 threads:
  Real time             =    0.00 sec. (0.00 ticks)
  Sync time (average)   =    0.00 sec.
  Wait time (average)   =    0.00 sec.
                          ------------
Total (root+branch&cut) =    3.67 sec. (2413.29 ticks)

Solution pool: 1 solution saved.

MIP - Integer optimal, tolerance (0.01/1e-06):  Objective =  1.0643939650e+03
Current MIP best bound =  1.0742144249e+03 (gap = 9.82046, 0.92%)
Solution time =    3.67 sec.  Iterations = 6920  Nodes = 0 (1)
Deterministic time = 2413.45 ticks  (657.26 ticks/sec)

CPLEX> Incumbent solution written to file 'C:\Users\llavin\Desktop\test826\logs\tmpwtc0hgtk.cplex.sol'.
CPLEX> NOTE: no warmstart specified for MIP iteration, default behavior is true
NOTE: resolving with all competitive generators using storage-only solution to warmstart
Solving...

Welcome to IBM(R) ILOG(R) CPLEX(R) Interactive Optimizer 12.9.0.0
  with Simplex, Mixed Integer & Barrier Optimizers
5725-A06 5725-A29 5724-Y48 5724-Y49 5724-Y54 5724-Y55 5655-Y21
Copyright IBM Corp. 1988, 2019.  All Rights Reserved.

Type 'help' for a list of available commands.
Type 'help' followed by a command name for more
information on commands.

CPLEX> Logfile 'cplex.log' closed.
Logfile 'C:\Users\llavin\Desktop\test826\logs\tmpjm3ifzc1.cplex.log' open.
CPLEX> New value for parallel optimization mode: -1
CPLEX> New value for emphasis for MIP optimization: 1
CPLEX> New value for mixed integer optimality gap tolerance: 0.01
CPLEX> New value for integrality tolerance: 1e-12
CPLEX> New value for deterministic time limit in ticks: 75000
CPLEX> Problem 'C:\Users\llavin\Desktop\test826\logs\tmpc8f9kl04.pyomo.lp' read.
Read time = 0.23 sec. (13.94 ticks)
CPLEX> MIP start file 'C:\Users\llavin\Desktop\test826\logs\tmpcb1l5ial.cplex.mst' read.
CPLEX> Problem name         : C:\Users\llavin\Desktop\test826\logs\tmpc8f9kl04.pyomo.lp
Objective sense      : Maximize
Variables            :   54529  [Nneg: 1,  Box: 22724,  Free: 4464,
                                 Binary: 27340]
Objective nonzeros   :    9725
Linear constraints   :  123253  [Less: 41346,  Greater: 59096,  Equal: 22811]
  Nonzeros           :  293217
  RHS nonzeros       :   67491

Variables            : Min LB: -5000.000        Max UB: 1000000.       
Objective nonzeros   : Min   : 0.3083333        Max   : 2500.000       
Linear constraints   :
  Nonzeros           : Min   : 0.3083333        Max   : 1000000.       
  RHS nonzeros       : Min   : 0.3083333        Max   : 1000000.       
CPLEX> CPXPARAM_Parallel                                -1
CPXPARAM_Emphasis_MIP                            1
CPXPARAM_DetTimeLimit                            75000
CPXPARAM_MIP_Tolerances_MIPGap                   0.01
CPXPARAM_MIP_Tolerances_Integrality              9.9999999999999998e-13
Warning:  No solution found from 1 MIP starts.
Retaining values of one MIP start for possible repair.
Tried aggregator 4 times.
MIP Presolve eliminated 88660 rows and 19683 columns.
MIP Presolve added 3378 rows and 0 columns.
MIP Presolve modified 24847 coefficients.
Aggregator did 12985 substitutions.
Reduced MIP has 24986 rows, 21305 columns, and 71873 nonzeros.
Reduced MIP has 8420 binaries, 0 generals, 0 SOSs, and 0 indicators.
Presolve time = 0.33 sec. (192.75 ticks)
Probing fixed 373 vars, tightened 3922 bounds.
Probing time = 0.08 sec. (19.04 ticks)
Tried aggregator 2 times.
MIP Presolve eliminated 845 rows and 747 columns.
MIP Presolve modified 3041 coefficients.
Aggregator did 34 substitutions.
Reduced MIP has 24107 rows, 20524 columns, and 69329 nonzeros.
Reduced MIP has 8047 binaries, 0 generals, 0 SOSs, and 0 indicators.
Presolve time = 0.11 sec. (89.61 ticks)
Probing fixed 0 vars, tightened 266 bounds.
Probing time = 0.14 sec. (22.94 ticks)
Clique table members: 44815.
MIP emphasis: integer feasibility.
MIP search method: dynamic search.
Parallel mode: opportunistic, using up to 32 threads.
Root relaxation solution time = 0.50 sec. (659.85 ticks)

        Nodes                                         Cuts/
   Node  Left     Objective  IInf  Best Integer    Best Bound    ItCnt     Gap

      0     0   153757.7941   372                 153757.7941     6209         
      0     0   150400.7103   275                   Cuts: 243     6528         
      0     0   149027.8134   239                    Cuts: 90     6655         
      0     0   148811.6528   243                    Cuts: 38     6695         
Repair heuristic found nothing.
      0    10   139083.3754   212                     Cuts: 9     6769         
Elapsed time = 4.53 sec. (1930.55 ticks, tree = 0.02 MB, solutions = 0)
    685   400   126831.0853   172                 145112.2728    11157         
   1199   915   123451.0979   179                 145112.2728    19180         
   1734  1236    21205.2834   128                 145112.2728    33304         
   2337  1642    16659.8690    52                 145112.2728    51471         
   3023  1945    34655.8910   116                 145112.2728    58123         
   3701  2309    infeasible                       144706.5667    72174         
   4270  2473    27534.2191    69                 144706.5667    78741         
   4856  2784   -54013.1861    70                 144706.5667    92291         
   5449  3020   -17093.9570    78                 144706.5667   100144         
   7995  4941    infeasible                       144706.5667   170370         
Elapsed time = 21.81 sec. (5034.79 ticks, tree = 88.89 MB, solutions = 0)
  10383  6349    16483.3644    79                 144706.5667   224709         
  12701  7663    45200.5502   100                 143900.1526   286950         
  14971  9379    36210.3238    99                 143441.0980   357396         
  17399 11512    13329.8138    94                 143441.0980   458979         
  19500 12341    11139.6160    86                 141106.0418   500918         
  21716 14057   -10578.0659   104                 140632.8772   585443         
  24092 15291    -7996.5079   100                 140632.8772   634646         
  26270 16817     2334.1728    88                 140632.8772   712546         
  28184 19137    -3028.0812    82                 140632.8772   814588         
  30144 19530    31036.9442   110                 138626.9969   834632         
Elapsed time = 72.36 sec. (14577.20 ticks, tree = 332.31 MB, solutions = 0)
  32354 21531    15457.8256   110                 138626.9969   947825         
  34425 21848    15010.3455   133                 138626.9969   970561         
  36472 22696    infeasible                       138626.9969  1021142         
  38524 26001    40929.0328    95                 138402.7771  1223457         
  40544 25780    15351.4941   115                 133114.2621  1209203         
  42620 26675    12156.7027   106                 129109.5259  1265258         
  44807 27639    infeasible                       123028.3402  1320197         
  47176 29704   -73852.0296   117                 108417.9867  1420848         
  49377 30449  -217942.3963   102                 108417.9867  1452379         
  51553 31900    infeasible                       108417.9867  1521065         
Elapsed time = 123.86 sec. (24117.57 ticks, tree = 624.59 MB, solutions = 0)
  53618 32758    30501.2295    97                 108417.9867  1566495         
  55711 34670     8644.8485   112                 108417.9867  1661350         
  57736 35404     7926.9801    73                 108417.9867  1697044         
  59645 36730    12137.6996    79                 108417.9867  1765538         
  61526 38942    30671.8499    94                  95499.2088  1897185         
  63376 39879     8049.4845   117                  92973.9469  1966521         
  65332 40767  -113920.6311   120                  92973.9469  2021572         
  67422 43950     8708.8456   114                  92973.9469  2201019         
  69582 42814    11513.6313   113                  92973.9469  2136771         
  71799 44982    15468.0536    70                  92973.9469  2262022         
Elapsed time = 179.94 sec. (33658.97 ticks, tree = 721.87 MB, solutions = 0)
  74169 45019   -61889.6725    90                  92973.9469  2265148         
  76402 45700    15793.2591    62                  92973.9469  2297001         
  78577 46374    20379.9971    89                  92973.9469  2325748         
  80477 52594    24376.1231    83                  92973.9469  2649305         
  82505 52741   -33760.0691   138                  92973.9469  2655781         
  84503 53441    29344.3066    94                  92973.9469  2690751         
  86439 54596    21823.9698    82                  92973.9469  2755967         
  88335 53850    28604.7946   124                  92973.9469  2714853         
  90262 54151    14221.1271   100                  92973.9469  2728229         
  92142 56634    32238.7826    75                  92973.9469  2867182         
Elapsed time = 243.56 sec. (43199.65 ticks, tree = 810.04 MB, solutions = 0)
  93874 56934   -64341.5936   119                  92973.9469  2888811         
  95742 60729    infeasible                        92973.9469  3131074         
  97499 59416   -73126.1099   239                  92973.9469  3045418         
  99455 57456  -116595.3642   100                  92973.9469  2925803         
 101319 59063    infeasible                        92973.9469  3023521         
 103211 60063    infeasible                        92973.9469  3090879         
 105259 64405     5491.9294    89                  92973.9469  3370721         
 107340 62223     8332.4762    79                  92973.9469  3231943         
 109284 68689    12559.9428   112                  92973.9469  3646667         
 111389 70435   -21693.2875    79                  92973.9469  3751375         
Elapsed time = 352.72 sec. (52742.54 ticks, tree = 1037.87 MB, solutions = 0)
 113423 63874   -58232.9265    91                  92973.9469  3335135         
 115254 64773     7083.8004    58                  92973.9469  3392349         
 117123 65268  -127810.5569   140                  92973.9469  3428977         
 119132 65301    infeasible                        92973.9469  3432167         
 121217 66485    infeasible                        92973.9469  3508677         
 123236 68512    19486.2599   106                  92973.9469  3637602         
 125270 70828     4689.7899    70                  92973.9469  3780669         
 127089 73601   -51041.7916    91                  92973.9469  3978459         
 128865 70740    infeasible                        92973.9469  3778016         
 130663 72719    infeasible                        92973.9469  3910401         
Elapsed time = 450.08 sec. (62282.46 ticks, tree = 1075.53 MB, solutions = 0)
 132417 79745    infeasible                        92973.9469  4449539         
 133926 72758    infeasible                        92973.9469  3913578         
 135303 74952  -536422.0544   169                  92973.9469  4079984         
 136626 77786     3592.5548    71                  92973.9469  4308419         
 137960 75608  -152162.7596   136                  92973.9469  4141265         
 139344 75641    12797.3146    64                  92973.9469  4144334         
 140518 76521  -208914.3885   177                  92973.9469  4215538         
 141770 81291  -319738.1376    91                  92973.9469  4583494         
 142900 80643  -116451.8751    94                  92973.9469  4509455         
 143883 80510   -35474.4982   146                  92973.9469  4506288         
Elapsed time = 456.69 sec. (71825.11 ticks, tree = 1139.64 MB, solutions = 0)
 144682 82895    12169.0301    69                  92973.9469  4715607         
 145343 81965  -612474.1479    96                  92973.9469  4635899         
 145736 82823   -14646.4328    75                  92973.9469  4704381         

Cover cuts applied:  12
Implied bound cuts applied:  2
Flow cuts applied:  239
Mixed integer rounding cuts applied:  18
Zero-half cuts applied:  1
Gomory fractional cuts applied:  5

Root node processing (before b&c):
  Real time             =    2.80 sec. (1881.90 ticks)
Parallel b&c, 32 threads:
  Real time             =  456.80 sec. (73166.10 ticks)
  Sync time (average)   =    0.88 sec.
  Wait time (average)   =    0.00 sec.
                          ------------
Total (root+branch&cut) =  459.59 sec. (75048.00 ticks)


MIP - Deterministic time limit exceeded, no integer solution.
Current MIP best bound =  8.4802116419e+04 (gap is infinite)
Solution time =  459.63 sec.  Iterations = 5539235  Nodes = 145856 (93155)
Deterministic time = 75048.16 ticks  (163.28 ticks/sec)

CPLEX> CPLEX Error  1217: No solution exists.
No file written.
CPLEX> gap is infinite, so writing 0
Exporting results... 
